1519
93 54 80 7 63 17 89 3 36 81 21 5 68 77 8 49 52 56 33 4 67 94 53 10 39 1 78 47 18 48 28 22 16 12 26 99 58 50 74 13 57 24 25 30 9 76 66 96 32 90 83 98 41 70 62 31 38 20 45 71 60 11 75 73 42 64 61 84 19 15 46 87 65 95 51 6 72 59 35 79 23 85 69 37 88 29 82 43 14 97 34 44 86 92 91 2 55 27 40 
